p cnf 53 44
-1 42 -16 -19 -33 0 
-2 7 8 9 10 13 15 24 25 36 -3 43 0 
-2 7 8 9 10 13 15 24 25 36 -3 44 0 
-4 6 18 31 -5 45 0 
-2 7 8 9 10 13 15 24 25 36 -6 4 18 31 -3 43 0 
-2 7 8 9 10 13 15 24 25 36 -6 4 18 31 -3 44 0 
-7 2 8 9 10 13 15 24 25 36 -3 43 0 
-8 2 7 9 10 13 15 24 25 36 -3 44 0 
-8 2 7 9 10 13 15 24 25 36 -3 43 0 
-7 2 8 9 10 13 15 24 25 36 -3 44 0 
-9 2 7 8 10 13 15 24 25 36 -3 44 0 
-10 2 7 8 9 13 15 24 25 36 -11 -12 44 0 
-10 2 7 8 9 13 15 24 25 36 -11 -12 43 0 
-9 2 7 8 10 13 15 24 25 36 -3 43 0 
-13 2 7 8 9 10 15 24 25 36 -11 -12 -14 44 0 
-13 2 7 8 9 10 15 24 25 36 -11 -12 -14 43 0 
-15 2 7 8 9 10 13 24 25 36 -12 -11 44 0 
-16 19 33 46 0 
-17 -18 4 6 31 -19 16 33 -20 47 0 
-19 16 33 46 0 
-21 42 -16 -19 -33 0 
-22 -23 48 0 
-15 2 7 8 9 10 13 24 25 36 -11 -12 43 0 
-24 2 7 8 9 10 13 15 25 36 49 0 
-24 2 7 8 9 10 13 15 25 36 50 0 
-25 2 7 8 9 10 13 15 24 36 -3 43 0 
-25 2 7 8 9 10 13 15 24 36 -3 44 0 
-26 51 0 
-27 -28 42 -16 -19 -33 0 
-27 -29 38 -30 39 -31 4 6 18 42 -16 -19 -33 0 
-3 52 0 
-32 -33 16 19 -34 53 0 
-33 16 19 -35 53 0 
-36 2 7 8 9 10 13 15 24 25 -3 44 0 
-36 2 7 8 9 10 13 15 24 25 -3 43 0 
-37 -38 29 46 0 
-39 30 46 0 
-40 42 -16 -19 -33 0 
-13 2 7 8 9 10 15 24 25 36 -11 -14 43 0 
-13 2 7 8 9 10 15 24 25 36 -11 -14 44 0 
-7 2 8 9 10 13 15 24 25 36 -3 49 0 
-7 2 8 9 10 13 15 24 25 36 -3 50 0 
-37 46 0 
-41 42 -16 -19 -33 0 
